InboundTrucks  = 8;
OutboundTrucks = 5;
InboundDoors   = 4;
OutboundDoors  = 4;
ReleaseTime    = [100,86,10,114,111,72,73,68];
UnloadTime     = [41,40,18,30,16,22,19,26];
LoadTime       = [23,6,27,29,13];
TransferTime   = [| 35,24,50,35,14 | 0,11,22,42,23 | 21,0,20,15,45 | 48,39,0,18,0 | 39,0,13,0,17 | 24,35,27,0,0 | 12,20,39,16,37 | 0,45,20,23,0 |];
